NAME : kroC100-C-5-3-a.21278.tour
COMMENT : Length = 21278
COMMENT : Found by LKH-3 [Keld Helsgaun] Tue Jul 30 13:14:12 2024
TYPE : TOUR
DIMENSION : 100
TOUR_SECTION
1
85
40
12
46
24
32
61
26
7
82
78
9
51
63
16
37
29
18
49
93
4
60
14
99
19
10
92
66
44
48
84
11
52
87
96
97
81
45
33
100
36
57
74
69
3
73
59
41
89
21
23
70
76
91
94
95
50
62
83
72
86
5
43
56
71
38
39
28
88
98
58
34
90
25
17
8
22
75
6
54
2
35
68
30
77
80
65
31
47
67
55
42
20
64
79
13
15
27
53
-1
EOF
